c A SAT instance generated from a 3-CNF formula that had 32 clauses and 8 variables
p cnf 8 32
-7 -2 6 0
7 2 6 0
1 -8 -4 0
1 -4 6 0
5 -4 7 0
2 -5 -4 0
-7 5 -2 0
7 -1 5 0
5 7 2 0
2 -1 5 0
-6 3 -5 0
-8 -2 6 0
3 -4 1 0
-2 3 -1 0
-8 5 -7 0
8 2 -5 0
6 -7 8 0
-4 7 8 0
-3 -6 7 0
-1 -2 6 0
7 4 2 0
8 3 -5 0
-7 3 8 0
8 3 -6 0
8 -5 1 0
-4 -7 -5 0
-8 5 -7 0
-8 6 3 0
-8 6 -5 0
3 -8 5 0
-3 -8 -2 0
-6 -7 8 0
